
  32    4
  10   10   10   10

   0   0   0   0   0   2 2 31 
   1  10  10  10  10   1 3 
   3  10  10  10  10   1 4 
  10  10  10  10  10   3 13 8 5 
  10  10  10  10  10   3 20 12 6 
  10  10  10  10  10   3 24 10 7 
   4  10  10  10  10   2 16 9 
   6  10  10  10  10   3 20 11 10 
   8  10  10  10  10   4 29 23 18 11 
   9  10  10  10  10   5 30 29 28 18 15 
   3  10  10  10  10   3 30 28 14 
  10  10  10  10  10   3 29 28 14 
   1  10  10  10  10   4 29 28 23 18 
   1  10  10  10  10   1 15 
   9  10  10  10  10   1 17 
   7  10  10  10  10   1 18 
   5  10  10  10  10   1 19 
   8  10  10  10  10   1 19 
   2  10  10  10  10   2 26 21 
   4  10  10  10  10   3 27 26 22 
   4  10  10  10  10   2 27 22 
   2  10  10  10  10   1 25 
   3  10  10  10  10   1 26 
   4  10  10  10  10   1 28 
   2  10  10  10  10   1 32
   3  10  10  10  10   1 32
   6  10  10  10  10   1 32
   7  10  10  10  10   1 32
   8  10  10  10  10   1 32
   5  10  10  10  10   1 32
   8  10  10  10  10   1 32
   0   0   0   0   0   0 
